out/bwp_10_5_1_lp.out
2
0 0    0 0
1 0    3 1
4 0    6 1
7 0    8 0
9 0    9 1
