out/bwp_10_5_1_lp.log
Tried aggregator 2 times.
MIP Presolve eliminated 6 rows and 2 columns.
MIP Presolve modified 40 coefficients.
Aggregator did 40 substitutions.
Reduced MIP has 231 rows, 215 columns, and 582 nonzeros.
Reduced MIP has 124 binaries, 11 generals, 0 SOSs, and 80 indicators.
Presolve time = 0.00 sec. (0.49 ticks)
Found incumbent of value 11.000000 after 0.00 sec. (0.87 ticks)
Probing fixed 6 vars, tightened 36 bounds.
Probing time = 0.00 sec. (0.54 ticks)
Tried aggregator 2 times.
MIP Presolve eliminated 9 rows and 7 columns.
MIP Presolve modified 120 coefficients.
Aggregator did 57 substitutions.
Reduced MIP has 165 rows, 151 columns, and 448 nonzeros.
Reduced MIP has 98 binaries, 53 generals, 0 SOSs, and 76 indicators.
Presolve time = 0.00 sec. (0.61 ticks)
Probing time = 0.00 sec. (0.26 ticks)
Tried aggregator 1 time.
Reduced MIP has 165 rows, 151 columns, and 448 nonzeros.
Reduced MIP has 98 binaries, 53 generals, 0 SOSs, and 76 indicators.
Presolve time = 0.00 sec. (0.21 ticks)
Probing time = 0.00 sec. (0.26 ticks)
Clique table members: 2.
MIP emphasis: balance optimality and feasibility.
MIP search method: dynamic search.
Parallel mode: deterministic, using up to 4 threads.
Root relaxation solution time = 0.00 sec. (0.37 ticks)

        Nodes                                         Cuts/
   Node  Left     Objective  IInf  Best Integer    Best Bound    ItCnt     Gap

*     0+    0                           11.0000        2.0000       58   81.82%
      0     0        2.0000    46       11.0000        2.0000       58   81.82%
*     0+    0                            2.0000        2.0000       58    0.00%
      0     0        cutoff              2.0000        2.0000       58    0.00%
Elapsed time = 0.03 sec. (6.80 ticks, tree = 0.00 MB, solutions = 2)

Root node processing (before b&c):
  Real time             =    0.03 sec. (6.81 ticks)
Parallel b&c, 4 threads:
  Real time             =    0.00 sec. (0.00 ticks)
  Sync time (average)   =    0.00 sec.
  Wait time (average)   =    0.00 sec.
                          ------------
Total (root+branch&cut) =    0.03 sec. (6.81 ticks)
